p tdp 23 63
1 6
1 7
1 13
1 18
1 22
2 5
2 15
2 17
2 21
2 23
3 7
3 9
3 13
3 19
3 20
4 8
4 12
4 14
4 17
4 20
5 8
5 11
5 17
5 23
6 13
6 14
6 19
6 22
7 9
7 13
7 18
8 11
8 12
8 17
9 10
9 16
9 18
9 20
9 21
10 11
10 12
10 16
10 20
11 12
11 16
11 23
12 20
13 19
14 15
14 17
14 19
14 20
14 22
15 17
15 18
15 21
15 22
16 21
16 23
18 21
18 22
19 20
21 23
